sat
(:added-eqs                       1960
 :arith-eq-adapter                280
 :arith-bound-propagations-lp     50
 :arith-conflicts                 347
 :arith-diseq                     240
 :arith-fixed-eqs                 64
 :arith-gcd-calls                 6
 :arith-grobner-calls             37
 :arith-grobner-conflicts         16
 :arith-horner-calls              8
 :arith-horner-cross-nested-forms 2548
 :arith-lower                     947
 :arith-make-feasible             747
 :arith-max-columns               710
 :arith-max-rows                  267
 :arith-nla-add-bounds            17
 :arith-nla-lemmas                122
 :arith-nla-propagate-bounds      216
 :arith-nla-propagate-eq          740
 :arith-nra-calls                 3
 :arith-offset-eqs                22
 :arith-patches                   6
 :arith-patches-success           6
 :arith-upper                     1636
 :binary-propagations             6236
 :card2bv-rewrites                1
 :conflicts                       43
 :decisions                       7686
 :del-clause                      232
 :elim-unconstrained              18
 :final-checks                    78
 :max-memory                      25.66
 :memory                          19.15
 :mk-bool-var                     1664
 :mk-clause                       621
 :mk-clause-binary                9552
 :num-allocs                      40931812
 :num-checks                      1
 :propagations                    6957
 :rlimit-count                    411637
 :time                            0.19
 :total-time                      0.21)
